c WARNING: for repeatability, setting FPU to use double precision
d VARIABLES            20899        
d CONSTRAINTS          80419        
c ============================[ Problem Statistics ]=============================
c |                                                                             |
c |  Number of variables:         20899                                         |
c |  Number of clauses:           80419                                         |
c |  Parse time:                   0.01 s                                       |
c |                                                                             |
c ============================[ Search Statistics ]==============================
c | Conflicts |          ORIGINAL         |          LEARNT          | Progress |
c |           |    Vars  Clauses Literals |    Limit  Clauses Lit/Cl |          |
c ===============================================================================
c |       100 |   14463    61317   150146 |    22482       99     56 | 30.796 % |
c |       250 |   14463    61257   150002 |    24731      249    100 | 30.796 % |
c |       475 |   14463    61257   150002 |    27204      474    109 | 30.796 % |
c |       812 |   14463    61257   150002 |    29924      811     95 | 30.796 % |
c |      1318 |   14463    61257   150002 |    32917     1317     93 | 30.796 % |
c |      2077 |   14463    61257   150002 |    36208     2076     84 | 30.796 % |
c |      3216 |   14463    61257   150002 |    39829     3215     82 | 30.796 % |
c |      4924 |   14463    61257   150002 |    43812     4923     85 | 30.796 % |
c |      7486 |   14463    61257   150002 |    48194     7485     81 | 30.796 % |
c |     11330 |   14463    61257   150002 |    53013    11329     80 | 30.796 % |
c |     17096 |   14463    61257   150002 |    58314    17095     85 | 30.796 % |
c |     25745 |   14463    61257   150002 |    64146    25744     88 | 30.796 % |
c |     38719 |   14463    61257   150002 |    70560    38718     84 | 30.796 % |
c |     58180 |   14463    61257   150002 |    77617    58179     84 | 30.796 % |
c |     87372 |   14463    61257   150002 |    85378    19472     60 | 30.796 % |
c |    131161 |   14463    61257   150002 |    93916    63261     56 | 30.796 % |
c |    196845 |   14463    61257   150002 |   103308    46784     58 | 30.796 % |
c |    295371 |   14463    61257   150002 |   113639    58181     56 | 30.796 % |
c |    443160 |   14428    61087   149594 |   125003   105268     43 | 30.963 % |
c ===============================================================================
c restarts              : 1023
c conflicts             : 492898         (5394 /sec)
c decisions             : 761988         (0.00 % random) (8338 /sec)
c propagations          : 308277984      (3373372 /sec)
c conflict literals     : 27887755       (51.97 % deleted)
d RESTARTS             1023
d FAILURES             492898       
d NODES                761988       
d BACKTRACKS           761988       
d PROPAGATIONS         308277984    
d NOGOODSIZE           56.58 
d MEMORY               68.00 
d TIME                 91.3857 

s UNSATISFIABLE
